problems/csplib-prob015/SchursLemma-models/noch/O2/lingeling/model_1_2-7-11-solution000001.eprime-solution
language ESSENCE' 1.0

letting boxes_PartitionAsSet_ExplicitR6_ExplicitVarSizeWithDummy be
        [[1, 3, 5, 11, 12, 12, 12, 12, 12, 12, 12; int(1..11)], [2, 12, 12, 12, 12, 12, 12, 12, 12, 12, 12; int(1..11)],
         [4, 12, 12, 12, 12, 12, 12, 12, 12, 12, 12; int(1..11)],
         [6, 12, 12, 12, 12, 12, 12, 12, 12, 12, 12; int(1..11)],
         [7, 12, 12, 12, 12, 12, 12, 12, 12, 12, 12; int(1..11)],
         [8, 12, 12, 12, 12, 12, 12, 12, 12, 12, 12; int(1..11)],
         [9, 10, 12, 12, 12, 12, 12, 12, 12, 12, 12; int(1..11)]; int(1..7)]
