problems/csplib-prob015/SchursLemma-models/noch/O2/lingeling/model_1_2-7-11-solution000001.solution
language Essence 1.3

letting boxes be partition({1, 3, 5, 11}, {2}, {4}, {6}, {7}, {8}, {9, 10})
